c 122_3_checker_5cl.cnf
c
c field = 122
c formula set type = 3_checker_5cl
c
p cnf 5 12
240 
244 
246 
-249 
-250 
241 
245 
247 
-248 
-251 
244 
246 
248 
-241 
-250 
245 
247 
249 
-240 
-251 
210 
274 
306 
-339 
-370 
211 
275 
307 
-338 
-371 
274 
306 
338 
-211 
-370 
275 
307 
339 
-210 
-371 
158 
186 
214 
-271 
-130 
159 
187 
215 
-270 
-131 
186 
214 
270 
-159 
-130 
187 
215 
271 
-158 
-131 
